Gurobi Optimizer version 9.1.0 build v9.1.0rc0 (linux64)
Thread count: 8 physical cores, 16 logical processors, using up to 16 threads
Optimize a model with 156424 rows, 151200 columns and 877950 nonzeros
Model fingerprint: 0x7182f371
Variable types: 0 continuous, 151200 integer (151200 binary)
Coefficient statistics:
  Matrix range     [1e+00, 1e+00]
  Objective range  [1e+01, 3e+04]
  Bounds range     [1e+00, 1e+00]
  RHS range        [1e+00, 2e+02]
Presolve added 0 rows and 2450 columns
Presolve removed 50 rows and 0 columns
Presolve time: 3.53s
Presolved: 156374 rows, 153650 columns, 635350 nonzeros
Variable types: 0 continuous, 153650 integer (153650 binary)
Found heuristic solution: objective 609286.00000

Concurrent LP optimizer: primal simplex, dual simplex, and barrier
Showing barrier log only...

Root barrier log...

Ordering time: 0.65s

Barrier statistics:
 Dense cols : 600
 AA' NZ     : 4.894e+05
 Factor NZ  : 2.609e+06 (roughly 150 MBytes of memory)
 Factor Ops : 1.141e+09 (less than 1 second per iteration)
 Threads    : 6

                  Objective                Residual
Iter       Primal          Dual         Primal    Dual     Compl     Time
   0   1.31974003e+08 -1.72993626e+08  3.65e+02 2.93e+01  9.72e+03     7s
   1   1.42988510e+06 -2.05343959e+08  2.25e+00 1.96e+02  5.14e+02     7s
   2   8.42956461e+05 -1.07420252e+08  5.55e-01 9.92e+01  2.51e+02     7s
   3   7.39400511e+05 -5.36139829e+07  2.33e-01 4.85e+01  1.24e+02     8s
   4   6.69684552e+05 -3.62515111e+06  2.58e-02 1.52e+02  9.57e+00     8s
   5   6.51277486e+05 -2.29379785e+05  1.13e-02 2.51e+01  1.95e+00     9s
   6   6.33908880e+05  9.71053520e+04  8.34e-03 1.47e+01  1.18e+00     9s
   7   6.23817627e+05  2.53275288e+05  7.11e-03 8.89e+00  8.15e-01     9s
   8   6.13260931e+05  3.48574615e+05  5.71e-03 5.39e+00  5.81e-01     9s
   9   6.05554456e+05  4.29098744e+05  4.96e-03 3.17e+00  3.86e-01    10s
  10   5.97563264e+05  4.63277286e+05  4.21e-03 2.18e+00  2.93e-01    10s
  11   5.90240191e+05  4.90039457e+05  3.63e-03 1.29e+00  2.18e-01    11s
  12   5.83067310e+05  5.05755626e+05  3.04e-03 9.04e-01  1.68e-01    11s
  13   5.76749340e+05  5.16413146e+05  2.56e-03 6.30e-01  1.31e-01    11s
  14   5.71437025e+05  5.24492550e+05  2.17e-03 4.27e-01  1.02e-01    12s
  15   5.63603729e+05  5.29930057e+05  1.58e-03 2.99e-01  7.29e-02    12s
  16   5.59097286e+05  5.33441742e+05  1.24e-03 2.14e-01  5.55e-02    13s
  17   5.55692891e+05  5.34806665e+05  9.85e-04 1.79e-01  4.52e-02    13s
  18   5.53088628e+05  5.35672581e+05  7.91e-04 1.58e-01  3.77e-02    13s
  19   5.51606416e+05  5.37365231e+05  6.77e-04 1.21e-01  3.08e-02    14s
  20   5.49813910e+05  5.37972949e+05  5.47e-04 1.07e-01  2.56e-02    14s
  21   5.49036844e+05  5.38813404e+05  4.87e-04 8.68e-02  2.21e-02    14s
  22   5.48176370e+05  5.39153771e+05  4.24e-04 7.85e-02  1.95e-02    15s
  23   5.47790336e+05  5.39256711e+05  3.95e-04 7.59e-02  1.85e-02    15s
  24   5.46715647e+05  5.39577065e+05  3.16e-04 6.83e-02  1.55e-02    15s
  25   5.46209331e+05  5.39996984e+05  2.80e-04 5.76e-02  1.35e-02    16s
  26   5.45856149e+05  5.40200715e+05  2.54e-04 5.29e-02  1.22e-02    16s
  27   5.45159521e+05  5.40609891e+05  2.01e-04 4.28e-02  9.85e-03    17s
  28   5.44619883e+05  5.40760415e+05  1.61e-04 3.92e-02  8.37e-03    17s
  29   5.44488410e+05  5.40895977e+05  1.51e-04 3.59e-02  7.79e-03    17s
  30   5.44325308e+05  5.41063573e+05  1.39e-04 3.18e-02  7.07e-03    18s
  31   5.44249123e+05  5.41152136e+05  1.34e-04 2.98e-02  6.71e-03    18s
  32   5.44061200e+05  5.41294972e+05  1.20e-04 2.64e-02  5.99e-03    18s
  33   5.43944199e+05  5.41328609e+05  1.12e-04 2.56e-02  5.67e-03    19s
  34   5.43718399e+05  5.41550274e+05  9.48e-05 2.03e-02  4.70e-03    19s
  35   5.43505003e+05  5.41622464e+05  7.94e-05 1.85e-02  4.08e-03    19s
  36   5.43388885e+05  5.41746553e+05  7.10e-05 1.54e-02  3.56e-03    20s
  37   5.43259705e+05  5.41830642e+05  6.16e-05 1.34e-02  3.10e-03    20s
  38   5.43184686e+05  5.41879008e+05  5.63e-05 1.22e-02  2.83e-03    20s
  39   5.43107551e+05  5.41917735e+05  5.09e-05 1.13e-02  2.58e-03    21s
  40   5.43039585e+05  5.41967442e+05  4.62e-05 1.01e-02  2.32e-03    21s
  41   5.42988167e+05  5.42020788e+05  4.24e-05 8.82e-03  2.10e-03    21s
  42   5.42936125e+05  5.42044174e+05  3.87e-05 8.24e-03  1.93e-03    22s
  43   5.42840303e+05  5.42141571e+05  3.18e-05 5.92e-03  1.51e-03    22s
  44   5.42776596e+05  5.42189393e+05  2.73e-05 4.90e-03  1.27e-03    23s
  45   5.42723330e+05  5.42213857e+05  2.37e-05 4.26e-03  1.10e-03    23s
  46   5.42663361e+05  5.42234607e+05  1.94e-05 3.74e-03  9.28e-04    23s
  47   5.42638624e+05  5.42268501e+05  1.76e-05 2.90e-03  8.00e-04    23s
  48   5.42595374e+05  5.42279803e+05  1.45e-05 2.63e-03  6.83e-04    24s
  49   5.42573534e+05  5.42304054e+05  1.30e-05 2.06e-03  5.82e-04    24s
  50   5.42547971e+05  5.42312663e+05  1.11e-05 1.84e-03  5.09e-04    24s
  51   5.42510227e+05  5.42324602e+05  8.42e-06 1.54e-03  4.02e-04    25s
  52   5.42502163e+05  5.42337171e+05  7.87e-06 1.24e-03  3.57e-04    25s
  53   5.42473598e+05  5.42342345e+05  5.88e-06 1.10e-03  2.84e-04    25s
  54   5.42456413e+05  5.42356496e+05  4.68e-06 7.50e-04  2.16e-04    26s
  55   5.42448277e+05  5.42359683e+05  4.12e-06 6.72e-04  1.92e-04    26s
  56   5.42443926e+05  5.42362931e+05  3.83e-06 5.91e-04  1.75e-04    26s
  57   5.42442717e+05  5.42365321e+05  3.75e-06 5.37e-04  1.67e-04    27s
  58   5.42432076e+05  5.42367726e+05  3.01e-06 4.75e-04  1.39e-04    27s
  59   5.42428262e+05  5.42372569e+05  2.76e-06 3.65e-04  1.20e-04    27s
  60   5.42423746e+05  5.42374046e+05  2.44e-06 3.39e-04  1.07e-04    28s
  61   5.42419410e+05  5.42375054e+05  2.15e-06 3.13e-04  9.58e-05    28s
  62   5.42417371e+05  5.42377837e+05  2.00e-06 2.44e-04  8.53e-05    28s
  63   5.42410905e+05  5.42380824e+05  1.56e-06 1.70e-04  6.49e-05    29s
  64   5.42402324e+05  5.42385352e+05  9.63e-07 6.07e-05  3.65e-05    29s
  65   5.42396451e+05  5.42387229e+05  5.74e-07 1.75e-05  1.98e-05    29s
  66   5.42392538e+05  5.42387777e+05  3.03e-07 1.76e-06  1.02e-05    29s
  67   5.42388063e+05  5.42387981e+05  3.60e-09 6.30e-07  1.77e-07    30s
  68   5.42388000e+05  5.42388000e+05  1.30e-13 1.61e-08  1.60e-11    30s

Barrier solved model in 68 iterations and 29.86 seconds
Optimal objective 5.42388000e+05


Root crossover log...

   84617 DPushes remaining with DInf 0.0000000e+00                30s
    1287 DPushes remaining with DInf 0.0000000e+00                30s
       0 DPushes remaining with DInf 0.0000000e+00                30s

     517 PPushes remaining with PInf 0.0000000e+00                30s
       0 PPushes remaining with PInf 0.0000000e+00                30s

  Push phase complete: Pinf 0.0000000e+00, Dinf 0.0000000e+00     30s


Root simplex log...

Iteration    Objective       Primal Inf.    Dual Inf.      Time
    9699    5.4238800e+05   0.000000e+00   0.000000e+00     30s
    9699    5.4238800e+05   0.000000e+00   0.000000e+00     31s

Solved with barrier

Root relaxation: objective 5.423880e+05, 9699 iterations, 25.75 seconds

    Nodes    |    Current Node    |     Objective Bounds      |     Work
 Expl Unexpl |  Obj  Depth IntInf | Incumbent    BestBd   Gap | It/Node Time

     0     0 542388.000    0 3401 609286.000 542388.000  11.0%     -   33s
H    0     0                    571485.00000 542388.000  5.09%     -   34s
H    0     0                    571376.00000 542388.000  5.07%     -   35s
H    0     0                    571079.00000 542388.000  5.02%     -   35s
     0     0 542392.125    0 3469 571079.000 542392.125  5.02%     -   41s
H    0     0                    543715.00000 542392.125  0.24%     -   43s
H    0     0                    543703.00000 542392.125  0.24%     -   44s
H    0     0                    542527.00000 542392.125  0.02%     -   57s
     0     0 542393.376    0 3908 542527.000 542393.376  0.02%     -   62s
     0     0 542404.081    0 4017 542527.000 542404.081  0.02%     -   69s
     0     0 542404.081    0 2897 542527.000 542404.081  0.02%     -   75s
     0     0 542410.355    0 3438 542527.000 542410.355  0.02%     -   77s
     0     0 542410.437    0 3439 542527.000 542410.437  0.02%     -   78s
     0     0 542414.976    0 3457 542527.000 542414.976  0.02%     -   79s
     0     0 542414.980    0 3459 542527.000 542414.980  0.02%     -   80s

Cutting planes:
  Gomory: 3
  Clique: 3
  MIR: 1
  Zero half: 153

Explored 1 nodes (18785 simplex iterations) in 82.66 seconds
Thread count was 16 (of 16 available processors)

Solution count 8: 542527 542527 543703 ... 609286

Optimal solution found (tolerance 1.00e-04)
Best objective 5.425270000000e+05, best bound 5.424925000000e+05, gap 0.0064%

User-callback calls 10418, time in user-callback 0.14 sec
['/opt/local/stow/gurobi910/linux64/lib/libgurobi91.so']
Optimal Result: runtime=80.04sec; objective=542527
Solution written to /autofs/unityaccount/cremi/mdeboute/Bureau/multi-period-flp/solution/instMulti_I50_J250_T12_1_result.txt
